NAME : 10_3_3_2_(17).dat
COMMENT : Henke, Speranza, Wäscher, 2015
TYPE : MCVRP
DIMENSION : 11
EDGE_WEIGHT_TYPE : DISTANCE_MATRIX
CAPACITY : 1000
VEHICLES : 2
PRODUCT TYPES : 3
COMPARTMENTS : 3
NODE_COORD_SECTION
1 50 50
2 97.65 24.48
3 58.17 56.46
4 56.99 99.09
5 60.45 59.48
6 94.05 37.76
7 7.24 44.67
8 92.4 10.73
9 82.54 18.24
10 1.09 54.82
11 55.55 29.57
DEMAND_SECTION
1 0 0 0
2 0 20 58
3 118 0 45
4 0 68 43
5 131 47 0
6 105 71 0
7 107 0 58
8 89 69 0
9 0 80 24
10 0 68 26
11 156 0 29
DEPOT_SECTION
1
EOF